NPROCS=0
This instance is clustered!
Gurobi Optimizer version 9.0.0 build v9.0.0rc2 (linux64)
Optimize a model with 18 rows, 82 columns and 162 nonzeros
Model fingerprint: 0xc05d3c5d
Variable types: 1 continuous, 81 integer (81 binary)
Coefficient statistics:
  Matrix range     [1e+00, 1e+00]
  Objective range  [1e+00, 5e+01]
  Bounds range     [1e+00, 1e+00]
  RHS range        [1e+00, 1e+00]
Presolve removed 2 rows and 24 columns
Presolve time: 0.00s
Presolved: 16 rows, 58 columns, 114 nonzeros
Variable types: 1 continuous, 57 integer (57 binary)

Root relaxation: objective 8.005454e+01, 14 iterations, 0.00 seconds

    Nodes    |    Current Node    |     Objective Bounds      |     Work
 Expl Unexpl |  Obj  Depth IntInf | Incumbent    BestBd   Gap | It/Node Time

     0     0  100.19172    0    6          -  100.19172      -     -    0s
H    0     0                     113.8956525  100.19172  12.0%     -    0s
H    0     0                     111.0497444  100.19172  9.78%     -    0s
     0     0  102.37953    0   15  111.04974  102.37953  7.81%     -    0s
     0     0  102.37953    0   12  111.04974  102.37953  7.81%     -    0s
     0     0  104.21252    0   12  111.04974  104.21252  6.16%     -    0s
     0     0  104.26344    0   12  111.04974  104.26344  6.11%     -    0s
     0     0  104.88997    0   13  111.04974  104.88997  5.55%     -    0s
     0     0  105.11535    0    8  111.04974  105.11535  5.34%     -    0s
     0     0  105.11535    0    8  111.04974  105.11535  5.34%     -    0s
     0     2  105.11535    0    8  111.04974  105.11535  5.34%     -    0s

Cutting planes:
  Gomory: 2
  Clique: 1
  Lazy constraints: 5

Explored 4 nodes (63 simplex iterations) in 0.03 seconds
Thread count was 12 (of 12 available processors)

Solution count 2: 111.05 113.896 

Optimal solution found (tolerance 1.00e-04)
Best objective 1.110497443503e+02, best bound 1.110497443503e+02, gap 0.0000%

User-callback calls 110, time in user-callback 0.00 sec
/projects/academic/josewalt/caigao/RRARP_BD/BendersDecomp/ret/model_outs/n_7_e_9_algo_2.out
 =====>>>>> Solution is written to file in <../ret/model_outs> !!!
===>> All Done!
